
#restart       10000 tmp.restart

units         lj
atom_style    atomic
dimension     3
boundary      p p p 

neighbor      0.3 bin

variable      w equal 50

neigh_modify  delay 0 every 10  #c

lattice       fcc 1.1
region        soluto    block 55 74.5 0 $w 0 $w
region        solvente1 block 0 39.5 0 $w  0 $w
region        solvente2 block 90 130 0 $w  0 $w

region        box block 0 130 0 $w  0 $w
create_box    2 box

create_atoms  1 region solvente1
create_atoms  1 region solvente2 
create_atoms  2 region soluto

pair_style    lj/cut 2.5

pair_coeff    1 1 1.0  1.0
pair_coeff    1 2 1.41 1.0
pair_coeff    2 2 2.0  1.0
mass          1 1.0
mass          2 1.0


# i create a group in order to use fix wall only with soluto

group         gsoluto type 2
group         gsolvente type 1


#gsolvente = A_atoms
#gsoluto = B_atoms 

# Epsilon , Sigma  , R_cut 
fix            rwall1 gsoluto wall/lj126 xlo 51 1.0 1.0 1.5 pbc yes
fix            rwall2 gsoluto wall/lj126 xhi 78.5 1.0 1.0 1.5 pbc yes
fix            1 all nve

velocity       all create 2 9728778 #c

#equilibration run

thermo_style    custom step ke pe etotal press vol density temp
thermo         1000
timestep       0.001

dump           d1 gsoluto xyz 1000 posicion8_1.xyz 
dump           d2 gsolvente xyz 1000 posicion8_2.xyz 

run            50000


unfix          rwall1 
unfix          rwall2

# data gathering run 

reset_timestep 0

#restart         2000 outtmp.restart
# Diffusion coeff. 

compute         msd all msd com yes
variable        twopoint equal c_msd[4]/4/(step*dt+1.0e-6)
fix             9 all vector 10 c_msd[4]
variable        fitslope equal slope(f_9)/4/(10*dt)


thermo_style    custom step ke pe etotal press vol density temp c_msd[4] v_twopoint v_fitslope #c
thermo          1000
run_style       verlet 


# output data

dump            dd1 gsoluto xyz 1000 posicion8-out_1.xyz  
dump            dd2 gsolvente xyz 1000 posicion8-out_2.xyz  

run             50000
